proyfinal/src/viki/013/andrea/andrea-localstore/experimentInOfficeAgust.take6/worker_2/06b73d7a-07be-4e5b-9688-8fa26ee5885d.als.cnf.out
Reading from standard input... Use '--help' for help.
============================[ Problem Statistics ]=============================
|                                                                             |
|  Number of variables:         87638                                         |
|  Number of clauses:          161767                                         |
|  Parse time:                   0.03 s                                       |
|                                                                             |
============================[ Search Statistics ]==============================
| Conflicts |          ORIGINAL         |          LEARNT          | Progress |
|           |    Vars  Clauses Literals |    Limit  Clauses Lit/Cl |          |
===============================================================================
|       100 |   62027   103892   259595 |    38093      100     52 | 29.224 % |
|       250 |   62027   103892   259595 |    41903      250     43 | 29.224 % |
|       475 |   62027   103892   259595 |    46093      475     49 | 29.224 % |
|       812 |   62027   103892   259595 |    50702      812     61 | 29.224 % |
|      1318 |   62027   103892   259595 |    55773     1318     65 | 29.224 % |
|      2077 |   62026   103848   259505 |    61350     2074     73 | 29.225 % |
|      3216 |   62026   103848   259505 |    67485     3213     77 | 29.225 % |
|      4924 |   46617    59368   150101 |    74233     4438     70 | 46.807 % |
|      7486 |   46420    58628   148387 |    81657     5377     58 | 47.032 % |
===============================================================================
restarts              : 41
conflicts             : 9639           (8063 /sec)
decisions             : 31169          (0.00 % random) (26073 /sec)
propagations          : 14023554       (11730931 /sec)
conflict literals     : 487239         (46.90 % deleted)
Memory used           : 27.06 MB
CPU time              : 1.19543 s

UNSATISFIABLE
